5 6 117
4 5 1 2 1 3 2 4 3 1 33 33 61 61 93 97 117 
3 4 1 4 2 5 4 9 49 49 91 91 113 
5 3 1 1 2 1 3 2 2 2 3 5 43 43 61 61 77 77 101 101 117 
5 1 1 5 2 5 3 1 4 3 3 13 33 38 64 64 86 86 98 102 116 
6 3 1 4 1 4 1 1 2 1 2 1 4 0 5 5 7 7 9 29 33 33 39 77 78 
13 5 1 1 1 1 1 2 1 2 1 5 2 3 2 3 2 2 2 5 4 5 4 4 3 3 3 0 1 1 7 7 13 13 14 14 15 33 38 38 44 44 47 61 65 85 86 86 89 91 97 97 102 
